10J3M/DAT/10J3MUTX-13.dat
10 3
24.63 4.9629
12.4094 3.5227
11.1551 3.3399
2.4915 1.5784
21.2322 4.6078
20.9665 4.5789
31.4093 5.6044
47.5178 6.8933
4.035 2.0087
12.2588 3.5013
10.1496