10J3M/SOL/10J3MUTX-13.sol
solution status: optimal solution found
objective value:                     70.4023001424281
x#1#1                               0.474276310901072 	(obj:0)
x#1#2                               0.525723689098928 	(obj:0)
x#2#3                                               1 	(obj:0)
x#5#2                              0.0590212302175385 	(obj:0)
x#5#3                               0.940978769782461 	(obj:0)
x#6#1                                               1 	(obj:0)
x#7#2                               0.291920139586438 	(obj:0)
x#7#3                               0.272338533397247 	(obj:0)
x#9#2                                               1 	(obj:0)
x#10#1                              0.690783785079956 	(obj:0)
x#10#2                              0.309216214920044 	(obj:0)
z                                    70.4023001424281 	(obj:1)
